results_rootrelaxation/bin012_080_015.srr.sol
solution status: optimal solution found
objective value:                                   17
_var734_                            0.208955223880597 	(obj:1)
_var758_                            0.194029850746269 	(obj:1)
_var766_                            0.343283582089553 	(obj:1)
_var768_                            0.149253731343283 	(obj:2)
_var772_                            0.104477611940299 	(obj:2)
_var779_                           0.0447761194029855 	(obj:2)
_var799_                            0.208955223880597 	(obj:2)
_var800_                           0.0447761194029856 	(obj:1)
_var802_                            0.597014925373134 	(obj:1)
_var803_                           0.0298507462686565 	(obj:1)
_var807_                            0.835820895522388 	(obj:0)
_var813_                            0.149253731343284 	(obj:1)
_var814_                            0.343283582089552 	(obj:3)
_var816_                           0.0149253731343284 	(obj:1)
_var822_                           0.0746268656716413 	(obj:1)
_var830_                            0.149253731343284 	(obj:2)
_var839_                            0.208955223880597 	(obj:2)
_var842_                            0.402985074626866 	(obj:1)
_var844_                            0.597014925373134 	(obj:1)
_var847_                            0.074626865671642 	(obj:2)
_var849_                           0.0298507462686562 	(obj:1)
_var850_                            0.149253731343284 	(obj:2)
_var858_                           0.0298507462686572 	(obj:2)
_var860_                            0.597014925373134 	(obj:2)
_var861_                            0.298507462686567 	(obj:2)
_var863_                            0.388059701492537 	(obj:2)
_var865_                             0.44776119402985 	(obj:2)
_var867_                             0.53731343283582 	(obj:1)
_var869_                             0.17910447761194 	(obj:2)
_var870_                            0.104477611940298 	(obj:3)
_var874_                            0.388059701492537 	(obj:2)
_var875_                            0.597014925373134 	(obj:2)
_var877_                           0.0746268656716423 	(obj:1)
_var883_                            0.194029850746269 	(obj:2)
_var885_                           0.0597014925373136 	(obj:2)
_var889_                           0.0895522388059699 	(obj:3)
_var891_                           0.0746268656716421 	(obj:2)
_var898_                            0.208955223880597 	(obj:2)
_var901_                            0.597014925373134 	(obj:1)
_var902_                           0.0746268656716422 	(obj:2)
_var903_                            0.149253731343284 	(obj:2)
_var905_                           0.0149253731343286 	(obj:1)
_var908_                           0.0597014925373134 	(obj:2)
_var909_                           0.0597014925373129 	(obj:1)
_var910_                            0.104477611940298 	(obj:3)
_var917_                            0.104477611940298 	(obj:2)
_var919_                           0.0149253731343286 	(obj:2)
_var923_                           0.0746268656716417 	(obj:3)
_var926_                            0.149253731343284 	(obj:1)
_var930_                            0.029850746268657 	(obj:3)
_var937_                            0.298507462686567 	(obj:2)
_var941_                           0.0447761194029848 	(obj:3)
