results_rootrelaxation/bin012_080_015.srr.log
SCIP version 8.0.3.5 [precision: 8 byte] [memory: block] [mode: optimized] [LP solver: Soplex 6.0.1.3] [GitHash: 438792519e]
Copyright (c) 2002-2023 Zuse Institute Berlin (ZIB)

External libraries: 
  Readline 8.1         GNU library for command line editing (gnu.org/s/readline)
  Soplex 6.0.1.3       Linear Programming Solver developed at Zuse Institute Berlin (soplex.zib.de) [GitHash: 713be0fe]
  CppAD 20180000.0     Algorithmic Differentiation of C++ algorithms developed by B. Bell (github.com/coin-or/CppAD)
  ZLIB 1.2.11          General purpose compression library by J. Gailly and M. Adler (zlib.net)
  bliss 0.77           Computing Graph Automorphism Groups by T. Junttila and P. Kaski (www.tcs.hut.fi/Software/bliss/)

user parameter file <scip.set> not found - using default parameters

srr/relaxation = TRUE

read problem <instances/bin012_080_015.srr>
============

Original problem: 
original problem has 0 variables (0 bin, 0 int, 0 impl, 0 cont) and 77 constraints

presolving:
presolving (1 rounds: 1 fast, 1 medium, 1 exhaustive):
 0 deleted vars, 0 deleted constraints, 0 added constraints, 0 tightened bounds, 0 added holes, 0 changed sides, 0 changed coefficients
 0 implications, 0 cliques
presolved problem has 0 variables (0 bin, 0 int, 0 impl, 0 cont) and 77 constraints
     77 constraints of type <linear>
Presolving Time: 0.00

 time | node  | left  |LP iter|LP it/n|mem/heur|mdpt |vars |cons |rows |cuts |sepa|confs|strbr|  dualbound   | primalbound  |  gap   | compl. 
  0.0s|     1 |     0 |     1 |     - |   710k |   0 |   1 |  77 |  77 |   0 |  0 |   0 |   0 |      --      |      --      |    Inf | unknown
r 0.1s|     1 |     0 |  1332 |     - |simplero|   0 | 720 |  77 |  77 |   0 |  0 |   0 |   0 |      --      | 3.480577e+01 |    Inf | unknown
r 0.1s|     1 |     0 |  1388 |     - |simplero|   0 | 731 |  77 |  77 |   0 |  0 |   0 |   0 |      --      | 3.328852e+01 |    Inf | unknown
r 0.1s|     1 |     0 |  1477 |     - |simplero|   0 | 742 |  77 |  77 |   0 |  0 |   0 |   0 |      --      | 3.019800e+01 |    Inf | unknown
r 0.1s|     1 |     0 |  1527 |     - |simplero|   0 | 753 |  77 |  77 |   0 |  0 |   0 |   0 |      --      | 2.895135e+01 |    Inf | unknown
r 0.1s|     1 |     0 |  1576 |     - |simplero|   0 | 764 |  77 |  77 |   0 |  0 |   0 |   0 |      --      | 2.736179e+01 |    Inf | unknown
r 0.1s|     1 |     0 |  1603 |     - |simplero|   0 | 764 |  77 |  77 |   0 |  0 |   0 |   0 |      --      | 2.704100e+01 |    Inf | unknown
r 0.1s|     1 |     0 |  1605 |     - |simplero|   0 | 764 |  77 |  77 |   0 |  0 |   0 |   0 |      --      | 2.703889e+01 |    Inf | unknown
r 0.1s|     1 |     0 |  1680 |     - |simplero|   0 | 775 |  77 |  77 |   0 |  0 |   0 |   0 |      --      | 2.492140e+01 |    Inf | unknown
r 0.1s|     1 |     0 |  1710 |     - |simplero|   0 | 775 |  77 |  77 |   0 |  0 |   0 |   0 |      --      | 2.468406e+01 |    Inf | unknown
r 0.1s|     1 |     0 |  1711 |     - |simplero|   0 | 775 |  77 |  77 |   0 |  0 |   0 |   0 |      --      | 2.468399e+01 |    Inf | unknown
r 0.1s|     1 |     0 |  1745 |     - |simplero|   0 | 786 |  77 |  77 |   0 |  0 |   0 |   0 |      --      | 2.417586e+01 |    Inf | unknown
r 0.1s|     1 |     0 |  1790 |     - |simplero|   0 | 786 |  77 |  77 |   0 |  0 |   0 |   0 |      --      | 2.379437e+01 |    Inf | unknown
r 0.1s|     1 |     0 |  1793 |     - |simplero|   0 | 786 |  77 |  77 |   0 |  0 |   0 |   0 |      --      | 2.379377e+01 |    Inf | unknown
r 0.1s|     1 |     0 |  1834 |     - |simplero|   0 | 797 |  77 |  77 |   0 |  0 |   0 |   0 |      --      | 2.302447e+01 |    Inf | unknown
 time | node  | left  |LP iter|LP it/n|mem/heur|mdpt |vars |cons |rows |cuts |sepa|confs|strbr|  dualbound   | primalbound  |  gap   | compl. 
r 0.1s|     1 |     0 |  1837 |     - |simplero|   0 | 797 |  77 |  77 |   0 |  0 |   0 |   0 |      --      | 2.302236e+01 |    Inf | unknown
r 0.1s|     1 |     0 |  1891 |     - |simplero|   0 | 808 |  77 |  77 |   0 |  0 |   0 |   0 |      --      | 2.202880e+01 |    Inf | unknown
r 0.1s|     1 |     0 |  1911 |     - |simplero|   0 | 808 |  77 |  77 |   0 |  0 |   0 |   0 |      --      | 2.182615e+01 |    Inf | unknown
r 0.1s|     1 |     0 |  1913 |     - |simplero|   0 | 808 |  77 |  77 |   0 |  0 |   0 |   0 |      --      | 2.182590e+01 |    Inf | unknown
r 0.1s|     1 |     0 |  1960 |     - |simplero|   0 | 819 |  77 |  77 |   0 |  0 |   0 |   0 |      --      | 2.034293e+01 |    Inf | unknown
r 0.1s|     1 |     0 |  1978 |     - |simplero|   0 | 819 |  77 |  77 |   0 |  0 |   0 |   0 |      --      | 2.028841e+01 |    Inf | unknown
r 0.1s|     1 |     0 |  1979 |     - |simplero|   0 | 819 |  77 |  77 |   0 |  0 |   0 |   0 |      --      | 2.028836e+01 |    Inf | unknown
r 0.1s|     1 |     0 |  2022 |     - |simplero|   0 | 830 |  77 |  77 |   0 |  0 |   0 |   0 |      --      | 1.972910e+01 |    Inf | unknown
r 0.1s|     1 |     0 |  2050 |     - |simplero|   0 | 841 |  77 |  77 |   0 |  0 |   0 |   0 |      --      | 1.939901e+01 |    Inf | unknown
r 0.1s|     1 |     0 |  2057 |     - |simplero|   0 | 841 |  77 |  77 |   0 |  0 |   0 |   0 |      --      | 1.938249e+01 |    Inf | unknown
r 0.1s|     1 |     0 |  2091 |     - |simplero|   0 | 852 |  77 |  77 |   0 |  0 |   0 |   0 |      --      | 1.884548e+01 |    Inf | unknown
r 0.1s|     1 |     0 |  2100 |     - |simplero|   0 | 852 |  77 |  77 |   0 |  0 |   0 |   0 |      --      | 1.881876e+01 |    Inf | unknown
r 0.1s|     1 |     0 |  2143 |     - |simplero|   0 | 863 |  77 |  77 |   0 |  0 |   0 |   0 |      --      | 1.838826e+01 |    Inf | unknown
r 0.1s|     1 |     0 |  2144 |     - |simplero|   0 | 863 |  77 |  77 |   0 |  0 |   0 |   0 |      --      | 1.838800e+01 |    Inf | unknown
r 0.1s|     1 |     0 |  2181 |     - |simplero|   0 | 874 |  77 |  77 |   0 |  0 |   0 |   0 |      --      | 1.808288e+01 |    Inf | unknown
 time | node  | left  |LP iter|LP it/n|mem/heur|mdpt |vars |cons |rows |cuts |sepa|confs|strbr|  dualbound   | primalbound  |  gap   | compl. 
  0.1s|     1 |     0 |  2194 |     - |  4191k |   0 | 874 |  77 |  77 |   0 |  0 |   0 |   0 |      --      | 1.808288e+01 |    Inf | unknown
r 0.1s|     1 |     0 |  2194 |     - |simplero|   0 | 874 |  77 |  77 |   0 |  0 |   0 |   0 |      --      | 1.805312e+01 |    Inf | unknown
r 0.1s|     1 |     0 |  2200 |     - |simplero|   0 | 874 |  77 |  77 |   0 |  0 |   0 |   0 |      --      | 1.803503e+01 |    Inf | unknown
r 0.1s|     1 |     0 |  2248 |     - |simplero|   0 | 885 |  77 |  77 |   0 |  0 |   0 |   0 |      --      | 1.759018e+01 |    Inf | unknown
r 0.1s|     1 |     0 |  2253 |     - |simplero|   0 | 885 |  77 |  77 |   0 |  0 |   0 |   0 |      --      | 1.758865e+01 |    Inf | unknown
r 0.1s|     1 |     0 |  2280 |     - |simplero|   0 | 894 |  77 |  77 |   0 |  0 |   0 |   0 |      --      | 1.731016e+01 |    Inf | unknown
r 0.1s|     1 |     0 |  2293 |     - |simplero|   0 | 894 |  77 |  77 |   0 |  0 |   0 |   0 |      --      | 1.730455e+01 |    Inf | unknown
r 0.1s|     1 |     0 |  2303 |     - |simplero|   0 | 894 |  77 |  77 |   0 |  0 |   0 |   0 |      --      | 1.729757e+01 |    Inf | unknown
r 0.1s|     1 |     0 |  2338 |     - |simplero|   0 | 905 |  77 |  77 |   0 |  0 |   0 |   0 |      --      | 1.713433e+01 |    Inf | unknown
r 0.1s|     1 |     0 |  2341 |     - |simplero|   0 | 905 |  77 |  77 |   0 |  0 |   0 |   0 |      --      | 1.713333e+01 |    Inf | unknown
r 0.1s|     1 |     0 |  2358 |     - |simplero|   0 | 913 |  77 |  77 |   0 |  0 |   0 |   0 |      --      | 1.708696e+01 |    Inf | unknown
r 0.1s|     1 |     0 |  2373 |     - |simplero|   0 | 920 |  77 |  77 |   0 |  0 |   0 |   0 |      --      | 1.705172e+01 |    Inf | unknown
r 0.1s|     1 |     0 |  2392 |     - |simplero|   0 | 927 |  77 |  77 |   0 |  0 |   0 |   0 |      --      | 1.703704e+01 |    Inf | unknown
r 0.1s|     1 |     0 |  2401 |     - |simplero|   0 | 934 |  77 |  77 |   0 |  0 |   0 |   0 |      --      | 1.703448e+01 |    Inf | unknown
r 0.1s|     1 |     0 |  2420 |     - |simplero|   0 | 938 |  77 |  77 |   0 |  0 |   0 |   0 |      --      | 1.701235e+01 |    Inf | unknown
 time | node  | left  |LP iter|LP it/n|mem/heur|mdpt |vars |cons |rows |cuts |sepa|confs|strbr|  dualbound   | primalbound  |  gap   | compl. 
r 0.1s|     1 |     0 |  2422 |     - |simplero|   0 | 938 |  77 |  77 |   0 |  0 |   0 |   0 |      --      | 1.701220e+01 |    Inf | unknown
r 0.1s|     1 |     0 |  2431 |     - |simplero|   0 | 946 |  77 |  77 |   0 |  0 |   0 |   0 |      --      | 1.700000e+01 |    Inf | unknown
  0.1s|     1 |     0 |  2431 |     - |  4518k |   0 | 946 |  77 |  77 |   0 |  0 |   0 |   0 | 1.700000e+01 | 1.700000e+01 |   0.00%| unknown
  0.1s|     1 |     0 |  2431 |     - |  4518k |   0 | 946 |  77 |  77 |   0 |  0 |   0 |   0 | 1.700000e+01 | 1.700000e+01 |   0.00%| unknown

SCIP Status        : problem is solved [optimal solution found]
Solving Time (sec) : 0.11
Solving Nodes      : 1
Primal Bound       : +1.70000000000000e+01 (45 solutions)
Dual Bound         : +1.70000000000000e+01
Gap                : 0.00 %

written transformed problem to file <results_rootrelaxation/bin012_080_015.srr.lp>
written transformed problem to file <results_rootrelaxation/bin012_080_015.srr.cip>

written solution information to file <results_rootrelaxation/bin012_080_015.srr.sol>



